(set-info :smt-lib-version 2.6)
(set-info :category "crafted")
(set-logic QF_FFA)
(define-sort FF0 () (_ FiniteField 52435875175126190479447740508185965837690552500527637822603658699938581184513))
(declare-fun j () Bool)
(declare-fun e () Bool)
(declare-fun a () Bool)
(declare-fun h () Bool)
(declare-fun i () Bool)
(declare-fun f () Bool)
(declare-fun c () Bool)
(declare-fun b () Bool)
(declare-fun d () Bool)
(declare-fun g () Bool)
(declare-fun return_n0 () FF0)
(declare-fun mul_n62 () FF0)
(declare-fun mul_n128 () FF0)
(declare-fun mul_n66 () FF0)
(declare-fun mul_n127 () FF0)
(declare-fun mul_n14 () FF0)
(declare-fun mul_n12 () FF0)
(declare-fun e_n2 () FF0)
(declare-fun mul_n13 () FF0)
(declare-fun mul_n96 () FF0)
(declare-fun mul_n126 () FF0)
(declare-fun mul_n110 () FF0)
(declare-fun mul_n125 () FF0)
(declare-fun j_n3 () FF0)
(declare-fun mul_n63 () FF0)
(declare-fun mul_n52 () FF0)
(declare-fun mul_n111 () FF0)
(declare-fun mul_n109 () FF0)
(declare-fun mul_n124 () FF0)
(declare-fun mul_n54 () FF0)
(declare-fun mul_n113 () FF0)
(declare-fun mul_n123 () FF0)
(declare-fun mul_n81 () FF0)
(declare-fun mul_n15 () FF0)
(declare-fun mul_n82 () FF0)
(declare-fun mul_n114 () FF0)
(declare-fun mul_n112 () FF0)
(declare-fun mul_n122 () FF0)
(declare-fun mul_n115 () FF0)
(declare-fun mul_n56 () FF0)
(declare-fun mul_n121 () FF0)
(declare-fun mul_n116 () FF0)
(declare-fun mul_n120 () FF0)
(declare-fun mul_n53 () FF0)
(declare-fun mul_n119 () FF0)
(declare-fun mul_n95 () FF0)
(declare-fun mul_n117 () FF0)
(declare-fun mul_n118 () FF0)
(declare-fun mul_n80 () FF0)
(declare-fun mul_n79 () FF0)
(declare-fun mul_n92 () FF0)
(declare-fun mul_n69 () FF0)
(declare-fun mul_n65 () FF0)
(declare-fun mul_n76 () FF0)
(declare-fun mul_n108 () FF0)
(declare-fun mul_n107 () FF0)
(declare-fun mul_n37 () FF0)
(declare-fun mul_n106 () FF0)
(declare-fun d_n4 () FF0)
(declare-fun mul_n105 () FF0)
(declare-fun mul_n104 () FF0)
(declare-fun mul_n103 () FF0)
(declare-fun mul_n102 () FF0)
(declare-fun mul_n101 () FF0)
(declare-fun mul_n59 () FF0)
(declare-fun mul_n100 () FF0)
(declare-fun mul_n51 () FF0)
(declare-fun mul_n99 () FF0)
(declare-fun mul_n98 () FF0)
(declare-fun i_n5 () FF0)
(declare-fun mul_n17 () FF0)
(declare-fun mul_n60 () FF0)
(declare-fun mul_n97 () FF0)
(declare-fun mul_n73 () FF0)
(declare-fun f_n1 () FF0)
(declare-fun mul_n72 () FF0)
(declare-fun mul_n94 () FF0)
(declare-fun mul_n93 () FF0)
(declare-fun mul_n77 () FF0)
(declare-fun mul_n19 () FF0)
(declare-fun mul_n91 () FF0)
(declare-fun mul_n90 () FF0)
(declare-fun g_n9 () FF0)
(declare-fun mul_n89 () FF0)
(declare-fun mul_n88 () FF0)
(declare-fun mul_n87 () FF0)
(declare-fun mul_n86 () FF0)
(declare-fun mul_n85 () FF0)
(declare-fun mul_n84 () FF0)
(declare-fun mul_n83 () FF0)
(declare-fun mul_n16 () FF0)
(declare-fun mul_n78 () FF0)
(declare-fun mul_n75 () FF0)
(declare-fun mul_n21 () FF0)
(declare-fun mul_n74 () FF0)
(declare-fun mul_n64 () FF0)
(declare-fun mul_n71 () FF0)
(declare-fun mul_n68 () FF0)
(declare-fun a_n10 () FF0)
(declare-fun mul_n67 () FF0)
(declare-fun mul_n70 () FF0)
(declare-fun mul_n24 () FF0)
(declare-fun c_n6 () FF0)
(declare-fun b_n8 () FF0)
(declare-fun mul_n18 () FF0)
(declare-fun mul_n61 () FF0)
(declare-fun h_n7 () FF0)
(declare-fun mul_n58 () FF0)
(declare-fun mul_n57 () FF0)
(declare-fun mul_n55 () FF0)
(declare-fun mul_n50 () FF0)
(declare-fun mul_n49 () FF0)
(declare-fun mul_n11 () FF0)
(declare-fun mul_n48 () FF0)
(declare-fun mul_n47 () FF0)
(declare-fun mul_n46 () FF0)
(declare-fun mul_n45 () FF0)
(declare-fun mul_n44 () FF0)
(declare-fun mul_n43 () FF0)
(declare-fun mul_n42 () FF0)
(declare-fun mul_n41 () FF0)
(declare-fun mul_n40 () FF0)
(declare-fun mul_n39 () FF0)
(declare-fun mul_n38 () FF0)
(declare-fun mul_n36 () FF0)
(declare-fun mul_n35 () FF0)
(declare-fun mul_n34 () FF0)
(declare-fun mul_n33 () FF0)
(declare-fun mul_n32 () FF0)
(declare-fun mul_n31 () FF0)
(declare-fun mul_n30 () FF0)
(declare-fun mul_n29 () FF0)
(declare-fun mul_n28 () FF0)
(declare-fun mul_n27 () FF0)
(declare-fun mul_n26 () FF0)
(declare-fun mul_n25 () FF0)
(declare-fun mul_n23 () FF0)
(declare-fun mul_n22 () FF0)
(declare-fun mul_n20 () FF0)
(assert 
  (let ((let0 j))
  (let ((let1 e))
  (let ((let2 a))
  (let ((let3 h))
  (let ((let4 (= let0 let3)))
  (let ((let5 (ite let4 let2 let1)))
  (let ((let6 (=> let5 let0)))
  (let ((let7 (= let6 let5)))
  (let ((let8 (or let7 let6)))
  (let ((let9 (not let8)))
  (let ((let10 i))
  (let ((let11 f))
  (let ((let12 (=> let2 let11)))
  (let ((let13 c))
  (let ((let14 (ite let13 let12 let10)))
  (let ((let15 (not let14)))
  (let ((let16 (= let15 let9)))
  (let ((let17 (and let4 let7)))
  (let ((let18 (not let7)))
  (let ((let19 b))
  (let ((let20 (or let19 let13 let10)))
  (let ((let21 d))
  (let ((let22 (or let3 let21 let20 let1)))
  (let ((let23 g))
  (let ((let24 (and let23 let1 let2 let12 let22 let21 let13 let19 let11 let19 let3 let22 let0 let23)))
  (let ((let25 (or let21 let14 let20 let24 let24 let14 let13 let4 let2 let24 let1 let20 let4 let14)))
  (let ((let26 (=> let25 let25)))
  (let ((let27 (ite let23 let26 let0)))
  (let ((let28 (and let27 let22)))
  (let ((let29 (=> let26 let6)))
  (let ((let30 (and let25 let19 let29)))
  (let ((let31 (or let30 let28 let18 let3)))
  (let ((let32 (ite let31 let17 let15)))
  (let ((let33 (or let32 let16 let16)))
  (let ((let34 (ite let11 let19 let27)))
  (let ((let35 (=> let27 let34)))
  (let ((let36 (not let28)))
  (let ((let37 (=> let36 let35)))
  (let ((let38 (=> let13 let37)))
  (let ((let39 (not let38)))
  (let ((let40 (not let30)))
  (let ((let41 (ite let22 let40 let27)))
  (let ((let42 (= let2 let41)))
  (let ((let43 (or let11 let37)))
  (let ((let44 (and let43 let17 let42 let35)))
  (let ((let45 (ite let18 let12 let10)))
  (let ((let46 (not let34)))
  (let ((let47 (or let46 let30 let20 let45)))
  (let ((let48 (not let29)))
  (let ((let49 (ite let48 let10 let45)))
  (let ((let50 (not let48)))
  (let ((let51 (and let28 let50 let12)))
  (let ((let52 (=> let34 let21)))
  (let ((let53 (=> let52 let49)))
  (let ((let54 (= let53 let8)))
  (let ((let55 (or let15 let49 let51 let54 let48 let8 let51 let32 let23 let17 let17)))
  (let ((let56 (ite let55 let49 let47)))
  (let ((let57 (or let56 let31 let44)))
  (let ((let58 (ite let50 let57 let18)))
  (let ((let59 (or let11 let45 let32 let26 let26 let31 let30 let6 let47 let46 let21 let24 let8 let47)))
  (let ((let60 (or let59 let7)))
  (let ((let61 (= let59 let46)))
  (let ((let62 (ite let37 let43 let54)))
  (let ((let63 (ite let62 let53 let50)))
  (let ((let64 (ite let36 let55 let62)))
  (let ((let65 (ite let50 let51 let40)))
  (let ((let66 (ite let52 let46 let9)))
  (let ((let67 (= let28 let57)))
  (let ((let68 (and let57 let28)))
  (let ((let69 (and let68 let67 let36 let66 let65 let64 let63 let61 let60 let58 let39 let33)))
  (let ((let70 return_n0))
  (let ((let71 (as ff1 FF0)))
  (let ((let72 (= let71 let70)))
  (let ((let73 (= let72 let69)))
  (let ((let74 (as ff0 FF0)))
  (let ((let75 (= let74 let70)))
  (let ((let76 (or let72 let75)))
  (let ((let77 (and let76 let73)))
  (let ((let78 (as ff52435875175126190479447740508185965837690552500527637822603658699938581184512 FF0)))
  (let ((let79 mul_n62))
  (let ((let80 (ff.mul let79 let78)))
  (let ((let81 (ff.add let80 let71)))
  (let ((let82 mul_n128))
  (let ((let83 (ff.mul let82 let81)))
  (let ((let84 (= let83 let70)))
  (let ((let85 mul_n66))
  (let ((let86 mul_n127))
  (let ((let87 (ff.mul let86 let85)))
  (let ((let88 (= let87 let82)))
  (let ((let89 mul_n14))
  (let ((let90 (ff.mul let89 let78)))
  (let ((let91 mul_n12))
  (let ((let92 e_n2))
  (let ((let93 mul_n13))
  (let ((let94 (ff.mul let93 let78)))
  (let ((let95 mul_n96))
  (let ((let96 (ff.add let95 let94 let92 let91 let90 let71)))
  (let ((let97 mul_n126))
  (let ((let98 (ff.mul let97 let96)))
  (let ((let99 (= let98 let86)))
  (let ((let100 mul_n110))
  (let ((let101 (ff.mul let100 let78)))
  (let ((let102 (ff.add let101 let71)))
  (let ((let103 mul_n125))
  (let ((let104 (ff.mul let103 let102)))
  (let ((let105 (= let104 let97)))
  (let ((let106 j_n3))
  (let ((let107 mul_n63))
  (let ((let108 mul_n52))
  (let ((let109 mul_n111))
  (let ((let110 mul_n109))
  (let ((let111 (ff.add let110 let109 let108 let107 let106 let78)))
  (let ((let112 mul_n124))
  (let ((let113 (ff.mul let112 let111)))
  (let ((let114 (= let113 let103)))
  (let ((let115 mul_n54))
  (let ((let116 (ff.mul let115 let78)))
  (let ((let117 mul_n113))
  (let ((let118 (ff.add let117 let116 let71)))
  (let ((let119 mul_n123))
  (let ((let120 (ff.mul let119 let118)))
  (let ((let121 (= let120 let112)))
  (let ((let122 mul_n81))
  (let ((let123 mul_n15))
  (let ((let124 mul_n82))
  (let ((let125 mul_n114))
  (let ((let126 mul_n112))
  (let ((let127 (ff.add let126 let125 let124 let123 let122 let78)))
  (let ((let128 mul_n122))
  (let ((let129 (ff.mul let128 let127)))
  (let ((let130 (= let129 let119)))
  (let ((let131 mul_n115))
  (let ((let132 mul_n56))
  (let ((let133 (ff.mul let132 let78)))
  (let ((let134 (ff.add let133 let131 let71)))
  (let ((let135 mul_n121))
  (let ((let136 (ff.mul let135 let134)))
  (let ((let137 (= let136 let128)))
  (let ((let138 mul_n116))
  (let ((let139 (ff.add let138 let123)))
  (let ((let140 mul_n120))
  (let ((let141 (ff.mul let140 let139)))
  (let ((let142 (= let141 let135)))
  (let ((let143 mul_n53))
  (let ((let144 (ff.mul let143 let78)))
  (let ((let145 (ff.add let144 let71)))
  (let ((let146 mul_n119))
  (let ((let147 (ff.mul let146 let145)))
  (let ((let148 (= let147 let140)))
  (let ((let149 mul_n95))
  (let ((let150 mul_n117))
  (let ((let151 (ff.add let150 let144 let149)))
  (let ((let152 mul_n118))
  (let ((let153 (ff.mul let152 let151)))
  (let ((let154 (= let153 let146)))
  (let ((let155 (ff.mul let149 let78)))
  (let ((let156 (ff.add let155 let71)))
  (let ((let157 (ff.mul let156 let143)))
  (let ((let158 (= let157 let152)))
  (let ((let159 (as ff2 FF0)))
  (let ((let160 (ff.mul let143 let159)))
  (let ((let161 (ff.mul let160 let156)))
  (let ((let162 (= let161 let150)))
  (let ((let163 (ff.mul let106 let78)))
  (let ((let164 (ff.mul let123 let78)))
  (let ((let165 (ff.mul let108 let78)))
  (let ((let166 (ff.mul let107 let78)))
  (let ((let167 (ff.add let166 let165 let164 let163 let71)))
  (let ((let168 mul_n80))
  (let ((let169 (ff.mul let168 let78)))
  (let ((let170 (ff.add let169 let71)))
  (let ((let171 (ff.mul let170 let167)))
  (let ((let172 (= let171 let138)))
  (let ((let173 mul_n79))
  (let ((let174 (ff.add let132 let173 let78)))
  (let ((let175 (ff.add let116 let71)))
  (let ((let176 (ff.mul let175 let174)))
  (let ((let177 (= let176 let131)))
  (let ((let178 (ff.mul let122 let78)))
  (let ((let179 mul_n92))
  (let ((let180 (ff.mul let179 let78)))
  (let ((let181 (ff.mul let124 let78)))
  (let ((let182 (ff.mul let126 let78)))
  (let ((let183 (ff.add let182 let181 let164 let180 let178 let159)))
  (let ((let184 (ff.mul let145 let183)))
  (let ((let185 (= let184 let125)))
  (let ((let186 (ff.add let178 let115)))
  (let ((let187 (ff.add let126 let124 let123 let122 let78)))
  (let ((let188 (ff.mul let187 let186)))
  (let ((let189 (= let188 let117)))
  (let ((let190 mul_n69))
  (let ((let191 (ff.mul let190 let78)))
  (let ((let192 (ff.add let191 let181 let164 let178 let159)))
  (let ((let193 mul_n65))
  (let ((let194 (ff.mul let193 let78)))
  (let ((let195 (ff.add let194 let71)))
  (let ((let196 (ff.mul let195 let192)))
  (let ((let197 (= let196 let126)))
  (let ((let198 (ff.add let165 let166 let163 let71)))
  (let ((let199 (as ff52435875175126190479447740508185965837690552500527637822603658699938581184511 FF0)))
  (let ((let200 (ff.mul let110 let199)))
  (let ((let201 (ff.add let200 let159)))
  (let ((let202 (ff.mul let201 let198)))
  (let ((let203 (= let202 let109)))
  (let ((let204 (ff.add let94 let92 let91 let90 let71)))
  (let ((let205 (ff.mul let110 let204)))
  (let ((let206 (= let205 let100)))
  (let ((let207 mul_n76))
  (let ((let208 mul_n108))
  (let ((let209 (ff.mul let208 let207)))
  (let ((let210 (= let209 let110)))
  (let ((let211 mul_n107))
  (let ((let212 (ff.mul let211 let123)))
  (let ((let213 (= let212 let208)))
  (let ((let214 mul_n37))
  (let ((let215 (ff.mul let214 let78)))
  (let ((let216 (ff.add let215 let71)))
  (let ((let217 mul_n106))
  (let ((let218 (ff.mul let217 let216)))
  (let ((let219 (= let218 let211)))
  (let ((let220 d_n4))
  (let ((let221 (ff.mul let220 let78)))
  (let ((let222 (ff.add let221 let71)))
  (let ((let223 mul_n105))
  (let ((let224 (ff.mul let223 let222)))
  (let ((let225 (= let224 let217)))
  (let ((let226 (ff.add let108 let106 let107)))
  (let ((let227 mul_n104))
  (let ((let228 (ff.mul let227 let226)))
  (let ((let229 (= let228 let223)))
  (let ((let230 mul_n103))
  (let ((let231 (ff.mul let230 let207)))
  (let ((let232 (= let231 let227)))
  (let ((let233 mul_n102))
  (let ((let234 (ff.mul let233 let93)))
  (let ((let235 (= let234 let230)))
  (let ((let236 (ff.add let133 let71)))
  (let ((let237 mul_n101))
  (let ((let238 (ff.mul let237 let236)))
  (let ((let239 (= let238 let233)))
  (let ((let240 mul_n59))
  (let ((let241 mul_n100))
  (let ((let242 (ff.mul let241 let240)))
  (let ((let243 (= let242 let237)))
  (let ((let244 mul_n51))
  (let ((let245 mul_n99))
  (let ((let246 (ff.mul let245 let244)))
  (let ((let247 (= let246 let241)))
  (let ((let248 mul_n98))
  (let ((let249 (ff.mul let248 let244)))
  (let ((let250 (= let249 let245)))
  (let ((let251 i_n5))
  (let ((let252 mul_n17))
  (let ((let253 mul_n60))
  (let ((let254 (ff.mul let253 let78)))
  (let ((let255 (ff.add let254 let252 let251)))
  (let ((let256 mul_n97))
  (let ((let257 (ff.mul let256 let255)))
  (let ((let258 (= let257 let248)))
  (let ((let259 (ff.mul let251 let78)))
  (let ((let260 mul_n73))
  (let ((let261 (ff.mul let260 let78)))
  (let ((let262 (ff.add let261 let259 let71)))
  (let ((let263 f_n1))
  (let ((let264 (ff.mul let263 let78)))
  (let ((let265 (ff.add let264 let71)))
  (let ((let266 (ff.mul let265 let262)))
  (let ((let267 (= let266 let256)))
  (let ((let268 (ff.mul let91 let78)))
  (let ((let269 (ff.mul let92 let78)))
  (let ((let270 (ff.add let93 let269 let155 let268 let89)))
  (let ((let271 (ff.mul let175 let270)))
  (let ((let272 (= let271 let95)))
  (let ((let273 mul_n72))
  (let ((let274 (ff.mul let273 let78)))
  (let ((let275 (ff.add let274 let71)))
  (let ((let276 mul_n94))
  (let ((let277 (ff.mul let276 let275)))
  (let ((let278 (= let277 let149)))
  (let ((let279 mul_n93))
  (let ((let280 (ff.mul let279 let78)))
  (let ((let281 (ff.add let207 let280)))
  (let ((let282 (ff.mul let281 let240)))
  (let ((let283 (= let282 let276)))
  (let ((let284 mul_n77))
  (let ((let285 (ff.add let284 let251 let207 let260 let78)))
  (let ((let286 (ff.add let180 let71)))
  (let ((let287 (ff.mul let286 let285)))
  (let ((let288 (= let287 let279)))
  (let ((let289 mul_n19))
  (let ((let290 (ff.mul let289 let78)))
  (let ((let291 (ff.add let290 let71)))
  (let ((let292 mul_n91))
  (let ((let293 (ff.mul let292 let291)))
  (let ((let294 (= let293 let179)))
  (let ((let295 mul_n90))
  (let ((let296 (ff.mul let295 let291)))
  (let ((let297 (= let296 let292)))
  (let ((let298 g_n9))
  (let ((let299 (ff.mul let298 let78)))
  (let ((let300 (ff.add let299 let71)))
  (let ((let301 mul_n89))
  (let ((let302 (ff.mul let301 let300)))
  (let ((let303 (= let302 let295)))
  (let ((let304 mul_n88))
  (let ((let305 (ff.mul let304 let255)))
  (let ((let306 (= let305 let301)))
  (let ((let307 (ff.mul let173 let78)))
  (let ((let308 (ff.add let307 let71)))
  (let ((let309 mul_n87))
  (let ((let310 (ff.mul let309 let308)))
  (let ((let311 (= let310 let304)))
  (let ((let312 mul_n86))
  (let ((let313 (ff.mul let312 let123)))
  (let ((let314 (= let313 let309)))
  (let ((let315 mul_n85))
  (let ((let316 (ff.mul let315 let175)))
  (let ((let317 (= let316 let312)))
  (let ((let318 (ff.add let178 let181 let164 let159)))
  (let ((let319 mul_n84))
  (let ((let320 (ff.mul let319 let318)))
  (let ((let321 (= let320 let315)))
  (let ((let322 mul_n83))
  (let ((let323 (ff.mul let322 let308)))
  (let ((let324 (= let323 let319)))
  (let ((let325 (ff.mul let284 let78)))
  (let ((let326 (ff.add let325 let261 let259 let71)))
  (let ((let327 (ff.add let252 let251)))
  (let ((let328 (ff.mul let327 let326)))
  (let ((let329 (= let328 let322)))
  (let ((let330 (ff.add let164 let71)))
  (let ((let331 (ff.mul let122 let199)))
  (let ((let332 (ff.add let331 let159)))
  (let ((let333 (ff.mul let332 let330)))
  (let ((let334 (= let333 let124)))
  (let ((let335 (ff.mul let170 let326)))
  (let ((let336 (= let335 let122)))
  (let ((let337 (ff.mul let226 let222)))
  (let ((let338 (= let337 let168)))
  (let ((let339 mul_n16))
  (let ((let340 (ff.mul let339 let78)))
  (let ((let341 (ff.add let340 let71)))
  (let ((let342 mul_n78))
  (let ((let343 (ff.mul let342 let341)))
  (let ((let344 (= let343 let173)))
  (let ((let345 (ff.mul let143 let175)))
  (let ((let346 (= let345 let342)))
  (let ((let347 (ff.mul let115 let261)))
  (let ((let348 (= let347 let284)))
  (let ((let349 mul_n75))
  (let ((let350 (ff.mul let349 let262)))
  (let ((let351 (= let350 let207)))
  (let ((let352 mul_n21))
  (let ((let353 mul_n74))
  (let ((let354 (ff.mul let353 let352)))
  (let ((let355 (= let354 let349)))
  (let ((let356 (ff.mul let226 let236)))
  (let ((let357 (= let356 let353)))
  (let ((let358 (ff.add let340 let259 let71)))
  (let ((let359 (ff.mul let204 let358)))
  (let ((let360 (= let359 let260)))
  (let ((let361 mul_n64))
  (let ((let362 (ff.mul let361 let78)))
  (let ((let363 (ff.add let362 let71)))
  (let ((let364 mul_n71))
  (let ((let365 (ff.mul let364 let363)))
  (let ((let366 (= let365 let273)))
  (let ((let367 mul_n68))
  (let ((let368 a_n10))
  (let ((let369 (ff.mul let368 let78)))
  (let ((let370 mul_n67))
  (let ((let371 (ff.mul let370 let78)))
  (let ((let372 (ff.add let371 let369 let367 let165 let163 let71)))
  (let ((let373 mul_n70))
  (let ((let374 (ff.mul let373 let372)))
  (let ((let375 (= let374 let364)))
  (let ((let376 (ff.add let191 let71)))
  (let ((let377 (ff.mul let376 let289)))
  (let ((let378 (= let377 let373)))
  (let ((let379 (ff.mul let265 let193)))
  (let ((let380 (= let379 let190)))
  (let ((let381 (ff.add let133 let165 let163 let71)))
  (let ((let382 mul_n24))
  (let ((let383 (ff.mul let382 let78)))
  (let ((let384 (ff.add let383 let71)))
  (let ((let385 (ff.mul let384 let381)))
  (let ((let386 (= let385 let370)))
  (let ((let387 c_n6))
  (let ((let388 (ff.mul let387 let193)))
  (let ((let389 (= let388 let85)))
  (let ((let390 (ff.mul let145 let361)))
  (let ((let391 (= let390 let193)))
  (let ((let392 (ff.add let108 let106)))
  (let ((let393 (ff.mul let392 let198)))
  (let ((let394 (= let393 let361)))
  (let ((let395 b_n8))
  (let ((let396 (ff.add let395 let165 let163)))
  (let ((let397 (ff.mul let263 let396)))
  (let ((let398 (= let397 let107)))
  (let ((let399 (ff.mul let252 let78)))
  (let ((let400 mul_n18))
  (let ((let401 (ff.mul let400 let78)))
  (let ((let402 (ff.add let259 let401 let123 let399 let71)))
  (let ((let403 mul_n61))
  (let ((let404 (ff.mul let403 let402)))
  (let ((let405 (= let404 let79)))
  (let ((let406 (ff.mul let255 let402)))
  (let ((let407 (= let406 let403)))
  (let ((let408 (ff.add let252 let251 let289 let78)))
  (let ((let409 (ff.mul let240 let78)))
  (let ((let410 (ff.add let409 let71)))
  (let ((let411 (ff.mul let410 let408)))
  (let ((let412 (= let411 let253)))
  (let ((let413 h_n7))
  (let ((let414 (ff.mul let413 let78)))
  (let ((let415 (ff.add let414 let71)))
  (let ((let416 mul_n58))
  (let ((let417 (ff.mul let416 let415)))
  (let ((let418 (= let417 let240)))
  (let ((let419 (ff.add let93 let269 let268 let89)))
  (let ((let420 mul_n57))
  (let ((let421 (ff.mul let420 let419)))
  (let ((let422 (= let421 let416)))
  (let ((let423 (ff.mul let236 let145)))
  (let ((let424 (= let423 let420)))
  (let ((let425 mul_n55))
  (let ((let426 (ff.mul let425 let175)))
  (let ((let427 (= let426 let132)))
  (let ((let428 mul_n50))
  (let ((let429 (ff.mul let428 let78)))
  (let ((let430 (ff.add let429 let71)))
  (let ((let431 (ff.mul let430 let395)))
  (let ((let432 (= let431 let425)))
  (let ((let433 (ff.mul let244 let78)))
  (let ((let434 (ff.add let433 let71)))
  (let ((let435 (ff.mul let434 let93)))
  (let ((let436 (= let435 let115)))
  (let ((let437 (ff.mul let392 let384)))
  (let ((let438 (= let437 let143)))
  (let ((let439 (ff.add let163 let433 let71)))
  (let ((let440 (ff.mul let298 let439)))
  (let ((let441 (= let440 let108)))
  (let ((let442 (ff.mul let430 let428)))
  (let ((let443 (= let442 let244)))
  (let ((let444 (ff.add let399 let259 let71)))
  (let ((let445 mul_n49))
  (let ((let446 (ff.mul let445 let444)))
  (let ((let447 (= let446 let428)))
  (let ((let448 mul_n11))
  (let ((let449 (ff.mul let448 let78)))
  (let ((let450 (ff.add let413 let449 let106)))
  (let ((let451 mul_n48))
  (let ((let452 (ff.mul let451 let450)))
  (let ((let453 (= let452 let445)))
  (let ((let454 mul_n47))
  (let ((let455 (ff.mul let454 let352)))
  (let ((let456 (= let455 let451)))
  (let ((let457 (ff.add let269 let71)))
  (let ((let458 mul_n46))
  (let ((let459 (ff.mul let458 let457)))
  (let ((let460 (= let459 let454)))
  (let ((let461 mul_n45))
  (let ((let462 (ff.mul let461 let216)))
  (let ((let463 (= let462 let458)))
  (let ((let464 (ff.add let369 let71)))
  (let ((let465 mul_n44))
  (let ((let466 (ff.mul let465 let464)))
  (let ((let467 (= let466 let461)))
  (let ((let468 mul_n43))
  (let ((let469 (ff.mul let468 let450)))
  (let ((let470 (= let469 let465)))
  (let ((let471 (ff.mul let387 let78)))
  (let ((let472 (ff.add let471 let71)))
  (let ((let473 mul_n42))
  (let ((let474 (ff.mul let473 let472)))
  (let ((let475 (= let474 let468)))
  (let ((let476 mul_n41))
  (let ((let477 (ff.mul let476 let444)))
  (let ((let478 (= let477 let473)))
  (let ((let479 mul_n40))
  (let ((let480 (ff.mul let479 let216)))
  (let ((let481 (= let480 let476)))
  (let ((let482 mul_n39))
  (let ((let483 (ff.mul let482 let216)))
  (let ((let484 (= let483 let479)))
  (let ((let485 mul_n38))
  (let ((let486 (ff.mul let485 let352)))
  (let ((let487 (= let486 let482)))
  (let ((let488 (ff.mul let222 let444)))
  (let ((let489 (= let488 let485)))
  (let ((let490 mul_n36))
  (let ((let491 (ff.mul let490 let298)))
  (let ((let492 (= let491 let214)))
  (let ((let493 mul_n35))
  (let ((let494 (ff.mul let493 let106)))
  (let ((let495 (= let494 let490)))
  (let ((let496 mul_n34))
  (let ((let497 (ff.mul let496 let384)))
  (let ((let498 (= let497 let493)))
  (let ((let499 mul_n33))
  (let ((let500 (ff.mul let499 let413)))
  (let ((let501 (= let500 let496)))
  (let ((let502 mul_n32))
  (let ((let503 (ff.mul let502 let395)))
  (let ((let504 (= let503 let499)))
  (let ((let505 mul_n31))
  (let ((let506 (ff.mul let505 let263)))
  (let ((let507 (= let506 let502)))
  (let ((let508 mul_n30))
  (let ((let509 (ff.mul let508 let395)))
  (let ((let510 (= let509 let505)))
  (let ((let511 mul_n29))
  (let ((let512 (ff.mul let511 let387)))
  (let ((let513 (= let512 let508)))
  (let ((let514 mul_n28))
  (let ((let515 (ff.mul let514 let220)))
  (let ((let516 (= let515 let511)))
  (let ((let517 mul_n27))
  (let ((let518 (ff.mul let517 let384)))
  (let ((let519 (= let518 let514)))
  (let ((let520 mul_n26))
  (let ((let521 (ff.mul let520 let341)))
  (let ((let522 (= let521 let517)))
  (let ((let523 mul_n25))
  (let ((let524 (ff.mul let523 let368)))
  (let ((let525 (= let524 let520)))
  (let ((let526 (ff.mul let298 let92)))
  (let ((let527 (= let526 let523)))
  (let ((let528 mul_n23))
  (let ((let529 (ff.mul let528 let457)))
  (let ((let530 (= let529 let382)))
  (let ((let531 mul_n22))
  (let ((let532 (ff.mul let531 let352)))
  (let ((let533 (= let532 let528)))
  (let ((let534 (ff.mul let415 let222)))
  (let ((let535 (= let534 let531)))
  (let ((let536 (ff.add let259 let71)))
  (let ((let537 mul_n20))
  (let ((let538 (ff.mul let537 let536)))
  (let ((let539 (= let538 let352)))
  (let ((let540 (ff.mul let395 let78)))
  (let ((let541 (ff.add let540 let71)))
  (let ((let542 (ff.mul let541 let472)))
  (let ((let543 (= let542 let537)))
  (let ((let544 (ff.add let163 let414 let448 let71)))
  (let ((let545 (ff.mul let544 let419)))
  (let ((let546 (= let545 let289)))
  (let ((let547 (ff.mul let251 let199)))
  (let ((let548 (ff.mul let252 let199)))
  (let ((let549 (ff.add let548 let547 let159)))
  (let ((let550 (ff.mul let549 let123)))
  (let ((let551 (= let550 let400)))
  (let ((let552 (ff.mul let387 let358)))
  (let ((let553 (= let552 let252)))
  (let ((let554 (ff.mul let368 let265)))
  (let ((let555 (= let554 let339)))
  (let ((let556 (ff.mul let204 let93)))
  (let ((let557 (= let556 let123)))
  (let ((let558 (ff.add let91 let92)))
  (let ((let559 (ff.mul let93 let199)))
  (let ((let560 (ff.add let559 let159)))
  (let ((let561 (ff.mul let560 let558)))
  (let ((let562 (= let561 let89)))
  (let ((let563 (ff.add let163 let71)))
  (let ((let564 (ff.mul let558 let563)))
  (let ((let565 (= let564 let93)))
  (let ((let566 (ff.add let368 let269)))
  (let ((let567 (ff.mul let544 let566)))
  (let ((let568 (= let567 let91)))
  (let ((let569 (ff.mul let106 let159)))
  (let ((let570 (ff.mul let569 let413)))
  (let ((let571 (= let570 let448)))
  (let ((let572 (and let571 let568 let565 let562 let557 let555 let553 let551 let546 let543 let539 let535 let533 let530 let527 let525 let522 let519 let516 let513 let510 let507 let504 let501 let498 let495 let492 let489 let487 let484 let481 let478 let475 let470 let467 let463 let460 let456 let453 let447 let443 let441 let438 let436 let432 let427 let424 let422 let418 let412 let407 let405 let398 let394 let391 let389 let386 let380 let378 let375 let366 let360 let357 let355 let351 let348 let346 let344 let338 let336 let334 let329 let324 let321 let317 let314 let311 let306 let303 let297 let294 let288 let283 let278 let272 let267 let258 let250 let247 let243 let239 let235 let232 let229 let225 let219 let213 let210 let206 let203 let197 let189 let185 let177 let172 let162 let158 let154 let148 let142 let137 let130 let121 let114 let105 let99 let88 let84)))
  (let ((let573 (ite let0 let71 let74)))
  (let ((let574 (= let106 let573)))
  (let ((let575 (ite let19 let71 let74)))
  (let ((let576 (= let395 let575)))
  (let ((let577 (ite let10 let71 let74)))
  (let ((let578 (= let251 let577)))
  (let ((let579 (ite let3 let71 let74)))
  (let ((let580 (= let413 let579)))
  (let ((let581 (ite let23 let71 let74)))
  (let ((let582 (= let298 let581)))
  (let ((let583 (ite let11 let71 let74)))
  (let ((let584 (= let263 let583)))
  (let ((let585 (ite let13 let71 let74)))
  (let ((let586 (= let387 let585)))
  (let ((let587 (ite let2 let71 let74)))
  (let ((let588 (= let368 let587)))
  (let ((let589 (ite let21 let71 let74)))
  (let ((let590 (= let220 let589)))
  (let ((let591 (ite let1 let71 let74)))
  (let ((let592 (= let92 let591)))
  (let ((let593 (and let592 let590 let588 let586 let584 let582 let580 let578 let576 let574)))
  (let ((let594 (and let593 let572)))
  (let ((let595 (=> let594 let77)))
  (let ((let596 (not let595)))
  let596
)))))))))))))))))))))))))))))))))))))))))))))))))))))))))))))))))))))))))))))))))))))))))))))))))))))))))))))))))))))))))))))))))))))))))))))))))))))))))))))))))))))))))))))))))))))))))))))))))))))))))))))))))))))))))))))))))))))))))))))))))))))))))))))))))))))))))))))))))))))))))))))))))))))))))))))))))))))))))))))))))))))))))))))))))))))))))))))))))))))))))))))))))))))))))))))))))))))))))))))))))))))))))))))))))))))))))))))))))))))))))))))))))))))))))))))))))))))))))))))))))))))))))))))))))))))))))))))))))))))))))))))))))))))))))))))))))))))))))))))))))))))))))))))))))))))))))))))))))))))
)
(check-sat)
